% Logging successfully configured
%%%mzn-stat: initTime=0.047846317
%%%mzn-stat: objective=521
%%%mzn-stat: nodes=2509
%%%mzn-stat: restarts=0
%%%mzn-stat: peakDepth=2495
%%%mzn-stat: solveTime=0.054616097
%%%mzn-stat: variables=3305
%%%mzn-stat: propagators=2867
%%%mzn-stat: failures=7
%%%mzn-stat: propagations=10518
%%%mzn-stat: nogoods=7
%%%mzn-stat: numAtomicConstraintsPropagated=0
%%%mzn-stat: allDifferentNumber1PropagationsTotal=289
%%%mzn-stat: allDifferentNumber1PropagationsThatFoundConflict=0
%%%mzn-stat: allDifferentNumber1PropagationsThatPruned=149
%%%mzn-stat: allDifferentNumber1TotalValuesPruned=1343
%%%mzn-stat: allDifferentNumber1TotalHallSetSizeConflict=0
%%%mzn-stat: allDifferentNumber1NumberOfConflicts=0
%%%mzn-stat: allDifferentNumber1MaxHallSetSizeConflict=0
%%%mzn-stat: allDifferentNumber1TotalPruningHallSetSize=2275
%%%mzn-stat: allDifferentNumber1NumberOfPruningExplanations=1343
%%%mzn-stat: allDifferentNumber1MaxPruningHallSetSize=56
%%%mzn-stat: allDifferentNumber1TotalFixedEdgesAtConflict=0
%%%mzn-stat: allDifferentNumber1TotalVarsInvolvedInPruning=1310
%%%mzn-stat: allDifferentNumber1MaxValuesPrunedFromSingleVar=6
%%%mzn-stat: allDifferentNumber1TotalSccSizeAtPruning=733
%%%mzn-stat: allDifferentNumber1NumberOfSccPruningCalls=149
%%%mzn-stat: circuitNumber2PropagationsThatFoundConflict=7
%%%mzn-stat: circuitNumber2TotalFixedEdgesAtConflict=957
%%%mzn-stat: circuitNumber2NumberOfConflicts=7
%%%mzn-stat: circuitNumber2PropagationsThatPruned=8
%%%mzn-stat: circuitNumber2PropagationsTotal=151
%%%mzn-stat: AverageConflictSize=54.57142857142857
%%%mzn-stat: NumUnitNogoodsLearned=0
%%%mzn-stat: AverageLearnedNogoodLength=56.285714285714285
%%%mzn-stat: AverageBacktrackAmount=0
%%%mzn-stat: AverageLbd=46.714285714285715
%%%mzn-stat: 2AutonomousSearchNumBackupCalled=2372
%%%mzn-stat: 2AutonomousSearchNumPredicatesRemoved=0
%%%mzn-stat: 2AutonomousSearchNumCalls=2373
%%%mzn-stat: 2AutonomousSearchNumPredicatesAdded=474
%%%mzn-stat: 2AutonomousSearchAverageSizeOfHeap=0.1997471554993679
%%%mzn-stat: 2AutonomousSearchNumAssignedPredicatesEncountered=474
%%%mzn-stat-end
maxleg = 521;
succ = array1d(1..150,[4, 3, 5, 32, 11, 9, 17, 21, 10, 18, 15, 13, 19, 22, 38, 6, 8, 24, 14, 2, 39, 20, 7, 47, 16, 25, 26, 12, 37, 28, 53, 45, 30, 33, 27, 44, 36, 58, 54, 23, 59, 35, 52, 43, 62, 34, 40, 29, 48, 49, 73, 56, 50, 55, 57, 66, 71, 1, 51, 41, 31, 70, 60, 79, 46, 68, 75, 80, 74, 64, 72, 85, 61, 84, 78, 69, 63, 92, 83, 87, 93, 99, 89, 82, 81, 94, 110, 42, 102, 65, 90, 117, 111, 103, 76, 91, 96, 67, 88, 97, 105, 140, 98, 107, 113, 142, 77, 101, 121, 114, 86, 108, 122, 144, 95, 104, 119, 130, 150, 109, 133, 118, 125, 138, 148, 112, 139, 135, 141, 100, 123, 137, 134, 143, 147, 120, 126, 106, 128, 136, 132, 146, 145, 129, 127, 116, 149, 115, 131, 124]);
% time elapsed: 13.03 s
----------
%%%mzn-stat: initTime=0.047846317
%%%mzn-stat: objective=359
%%%mzn-stat: nodes=5027
%%%mzn-stat: restarts=0
%%%mzn-stat: peakDepth=2495
%%%mzn-stat: solveTime=0.120242278
%%%mzn-stat: variables=3305
%%%mzn-stat: propagators=2867
%%%mzn-stat: failures=21
%%%mzn-stat: propagations=15760
%%%mzn-stat: nogoods=21
%%%mzn-stat: numAtomicConstraintsPropagated=0
%%%mzn-stat: allDifferentNumber1PropagationsTotal=611
%%%mzn-stat: allDifferentNumber1PropagationsThatFoundConflict=2
%%%mzn-stat: allDifferentNumber1PropagationsThatPruned=321
%%%mzn-stat: allDifferentNumber1TotalValuesPruned=2715
%%%mzn-stat: allDifferentNumber1TotalHallSetSizeConflict=4
%%%mzn-stat: allDifferentNumber1NumberOfConflicts=2
%%%mzn-stat: allDifferentNumber1MaxHallSetSizeConflict=2
%%%mzn-stat: allDifferentNumber1TotalPruningHallSetSize=4345
%%%mzn-stat: allDifferentNumber1NumberOfPruningExplanations=2715
%%%mzn-stat: allDifferentNumber1MaxPruningHallSetSize=56
%%%mzn-stat: allDifferentNumber1TotalFixedEdgesAtConflict=292
%%%mzn-stat: allDifferentNumber1TotalVarsInvolvedInPruning=2649
%%%mzn-stat: allDifferentNumber1MaxValuesPrunedFromSingleVar=6
%%%mzn-stat: allDifferentNumber1TotalSccSizeAtPruning=1347
%%%mzn-stat: allDifferentNumber1NumberOfSccPruningCalls=321
%%%mzn-stat: circuitNumber2PropagationsThatFoundConflict=19
%%%mzn-stat: circuitNumber2TotalFixedEdgesAtConflict=2703
%%%mzn-stat: circuitNumber2NumberOfConflicts=19
%%%mzn-stat: circuitNumber2PropagationsThatPruned=26
%%%mzn-stat: circuitNumber2PropagationsTotal=325
%%%mzn-stat: AverageConflictSize=69.23809523809524
%%%mzn-stat: NumUnitNogoodsLearned=0
%%%mzn-stat: AverageLearnedNogoodLength=78.42857142857143
%%%mzn-stat: AverageBacktrackAmount=0
%%%mzn-stat: AverageLbd=65.76190476190476
%%%mzn-stat: 2AutonomousSearchNumBackupCalled=4744
%%%mzn-stat: 2AutonomousSearchNumPredicatesRemoved=0
%%%mzn-stat: 2AutonomousSearchNumCalls=4746
%%%mzn-stat: 2AutonomousSearchNumPredicatesAdded=829
%%%mzn-stat: 2AutonomousSearchAverageSizeOfHeap=0.21892119679730299
%%%mzn-stat: 2AutonomousSearchNumAssignedPredicatesEncountered=1039
%%%mzn-stat-end
maxleg = 359;
succ = array1d(1..150,[4, 3, 5, 32, 11, 9, 17, 21, 10, 18, 15, 13, 19, 22, 38, 6, 8, 24, 14, 2, 39, 20, 7, 47, 16, 25, 26, 12, 37, 28, 53, 45, 30, 33, 27, 44, 36, 58, 54, 23, 59, 35, 52, 43, 62, 34, 40, 29, 48, 49, 73, 56, 50, 55, 57, 66, 71, 1, 51, 41, 31, 70, 60, 79, 46, 68, 75, 80, 74, 64, 72, 85, 61, 84, 78, 69, 63, 92, 83, 87, 93, 99, 89, 82, 81, 94, 110, 42, 102, 65, 90, 117, 111, 103, 76, 91, 96, 67, 88, 97, 105, 140, 98, 107, 113, 142, 77, 101, 121, 114, 86, 108, 122, 144, 95, 104, 119, 130, 150, 109, 133, 135, 125, 138, 148, 112, 116, 118, 141, 100, 149, 137, 134, 143, 123, 120, 126, 106, 128, 136, 132, 146, 145, 129, 127, 131, 139, 115, 147, 124]);
% time elapsed: 13.09 s
----------
%%%mzn-stat: initTime=0.047846317
%%%mzn-stat: objective=307
%%%mzn-stat: nodes=7550
%%%mzn-stat: restarts=0
%%%mzn-stat: peakDepth=2519
%%%mzn-stat: solveTime=0.176196649
%%%mzn-stat: variables=3305
%%%mzn-stat: propagators=2867
%%%mzn-stat: failures=25
%%%mzn-stat: propagations=20690
%%%mzn-stat: nogoods=25
%%%mzn-stat: numAtomicConstraintsPropagated=0
%%%mzn-stat: allDifferentNumber1PropagationsTotal=874
%%%mzn-stat: allDifferentNumber1PropagationsThatFoundConflict=2
%%%mzn-stat: allDifferentNumber1PropagationsThatPruned=455
%%%mzn-stat: allDifferentNumber1TotalValuesPruned=3969
%%%mzn-stat: allDifferentNumber1TotalHallSetSizeConflict=4
%%%mzn-stat: allDifferentNumber1NumberOfConflicts=2
%%%mzn-stat: allDifferentNumber1MaxHallSetSizeConflict=2
%%%mzn-stat: allDifferentNumber1TotalPruningHallSetSize=6333
%%%mzn-stat: allDifferentNumber1NumberOfPruningExplanations=3969
%%%mzn-stat: allDifferentNumber1MaxPruningHallSetSize=56
%%%mzn-stat: allDifferentNumber1TotalFixedEdgesAtConflict=292
%%%mzn-stat: allDifferentNumber1TotalVarsInvolvedInPruning=3877
%%%mzn-stat: allDifferentNumber1MaxValuesPrunedFromSingleVar=6
%%%mzn-stat: allDifferentNumber1TotalSccSizeAtPruning=2074
%%%mzn-stat: allDifferentNumber1NumberOfSccPruningCalls=455
%%%mzn-stat: circuitNumber2PropagationsThatFoundConflict=23
%%%mzn-stat: circuitNumber2TotalFixedEdgesAtConflict=3251
%%%mzn-stat: circuitNumber2NumberOfConflicts=23
%%%mzn-stat: circuitNumber2PropagationsThatPruned=31
%%%mzn-stat: circuitNumber2PropagationsTotal=461
%%%mzn-stat: AverageConflictSize=75.64
%%%mzn-stat: NumUnitNogoodsLearned=0
%%%mzn-stat: AverageLearnedNogoodLength=83.96
%%%mzn-stat: AverageBacktrackAmount=0
%%%mzn-stat: AverageLbd=70.4
%%%mzn-stat: 2AutonomousSearchNumBackupCalled=7140
%%%mzn-stat: 2AutonomousSearchNumPredicatesRemoved=0
%%%mzn-stat: 2AutonomousSearchNumCalls=7143
%%%mzn-stat: 2AutonomousSearchNumPredicatesAdded=1175
%%%mzn-stat: 2AutonomousSearchAverageSizeOfHeap=0.25325493490130196
%%%mzn-stat: 2AutonomousSearchNumAssignedPredicatesEncountered=1809
%%%mzn-stat-end
maxleg = 307;
succ = array1d(1..150,[4, 3, 5, 32, 11, 9, 17, 23, 10, 18, 15, 13, 19, 22, 38, 6, 8, 21, 14, 2, 24, 20, 40, 39, 16, 25, 26, 12, 37, 28, 53, 45, 30, 33, 27, 44, 36, 58, 47, 55, 59, 35, 52, 43, 7, 34, 54, 29, 48, 49, 73, 56, 50, 57, 71, 66, 72, 1, 51, 41, 31, 70, 60, 79, 46, 68, 75, 80, 74, 64, 85, 109, 61, 84, 78, 69, 63, 92, 83, 87, 62, 99, 89, 82, 81, 94, 110, 42, 93, 65, 90, 117, 102, 103, 76, 91, 96, 67, 88, 97, 105, 120, 98, 107, 113, 142, 77, 101, 121, 114, 86, 108, 122, 144, 95, 104, 119, 130, 150, 136, 133, 118, 125, 138, 148, 112, 116, 135, 141, 100, 149, 137, 134, 143, 123, 140, 126, 106, 128, 111, 132, 146, 145, 129, 127, 131, 139, 115, 147, 124]);
% time elapsed: 13.16 s
----------
